proyfinal/src/viki/013/experimentInOfficeAgust.take6.output/6793f243-c85e-458e-85af-237f3783cde8.als.out
Reading from standard input... Use '--help' for help.
============================[ Problem Statistics ]=============================
|                                                                             |
|  Number of variables:         87638                                         |
|  Number of clauses:          161767                                         |
|  Parse time:                   0.03 s                                       |
|                                                                             |
============================[ Search Statistics ]==============================
| Conflicts |          ORIGINAL         |          LEARNT          | Progress |
|           |    Vars  Clauses Literals |    Limit  Clauses Lit/Cl |          |
===============================================================================
|       100 |   63730   110049   274692 |    40351      100     20 | 27.280 % |
|       250 |   63730   110049   274692 |    44386      250     43 | 27.280 % |
|       475 |   63730   110049   274692 |    48825      475     85 | 27.280 % |
|       812 |   63706   109949   274463 |    53707      811     99 | 27.308 % |
|      1318 |   63706   109949   274463 |    59078     1317     97 | 27.308 % |
|      2077 |   63676   109829   274180 |    64986     2074     84 | 27.342 % |
|      3216 |   63554   109339   273028 |    71484     3204     93 | 27.481 % |
|      4924 |   63505   109095   272480 |    78633     4902    100 | 27.537 % |
|      7486 |   63475   108979   272192 |    86496     7462    109 | 27.571 % |
|     11330 |   63406   108692   271533 |    95146    11296    104 | 27.650 % |
===============================================================================
restarts              : 59
conflicts             : 13208          (7540 /sec)
decisions             : 65554          (0.00 % random) (37424 /sec)
propagations          : 19543422       (11156959 /sec)
conflict literals     : 1332168        (34.34 % deleted)
Memory used           : 30.43 MB
CPU time              : 1.75168 s

INDETERMINATE
